NAME: S101D5_25
COMMENT: 3228.09
VEHICLE: 48
TIME: 600
DIMENSION: 101
CAPACITY: 160
DELIVERY_SECTION
0 0 0
1 1 40
2 1 8
3 1 1.6
4 1 1.6
5 1 0.8
6 2 40
7 2 16
8 2 1.6
9 2 1.4
10 3 40
11 3 16
12 3 1.6
13 3 1.6
14 3 1.6
15 3 1.2
16 4 40
17 4 40
18 4 16
19 4 1.6
20 4 1.6
21 4 1.6
22 4 1.6
23 4 0.6
24 5 40
25 5 8
26 5 1.6
27 5 1.6
28 5 0.8
29 6 40
30 6 16
31 6 1.6
32 6 1.6
33 6 1.6
34 6 1.6
35 6 0.6
36 7 40
37 7 16
38 7 1.6
39 7 1.6
40 7 1.6
41 7 1.6
42 7 0.6
43 8 40
44 8 40
45 8 1.6
46 8 1.4
47 9 40
48 9 8
49 9 1.6
50 9 1.6
51 9 0.8
52 10 40
53 10 40
54 10 8
55 11 40
56 11 16
57 11 1.6
58 11 1.6
59 11 1.6
60 11 1.6
61 11 0.6
62 12 40
63 12 16
64 12 1
65 13 40
66 13 8
67 13 1.6
68 13 1.6
69 13 0.8
70 14 40
71 14 40
72 14 16
73 14 8
74 14 1.6
75 14 0.4
76 15 40
77 15 16
78 15 1.6
79 15 1.6
80 15 1.6
81 15 0.2
82 16 40
83 16 16
84 16 8
85 17 40
86 17 8
87 17 1.6
88 17 1.6
89 17 0.8
90 18 40
91 18 40
92 18 16
93 18 8
94 18 1.6
95 18 1.6
96 18 1.6
97 18 1.6
98 18 0.6
99 19 40
100 19 16
101 19 1
102 20 40
103 20 40
104 20 1.6
105 20 1.6
106 20 1.6
107 20 1.2
108 21 40
109 21 8
110 21 1.6
111 21 1.6
112 21 1.6
113 21 0.2
114 22 40
115 22 40
116 22 16
117 22 8
118 23 40
119 23 8
120 23 1.6
121 23 0.4
122 24 40
123 24 40
124 24 16
125 24 1.6
126 24 1.6
127 24 1.6
128 24 1.2
129 25 40
130 25 8
131 25 1.6
132 25 1.6
133 25 1.6
134 25 1.6
135 25 0.6
136 26 40
137 26 40
138 26 1.6
139 26 1.6
140 26 0.8
141 27 40
142 27 8
143 27 1.6
144 27 1.6
145 27 1.6
146 27 0.2
147 28 40
148 28 40
149 28 16
150 28 8
151 28 1.6
152 28 1.6
153 28 1.6
154 28 1.2
155 29 40
156 29 16
157 29 1
158 30 40
159 30 16
160 30 1.6
161 30 0.4
162 31 40
163 31 16
164 31 8
165 32 40
166 32 40
167 32 16
168 32 8
169 32 1.6
170 32 1.6
171 32 1.6
172 32 1.6
173 32 0.6
174 33 40
175 33 16
176 33 1.6
177 33 1.6
178 33 0.8
179 34 40
180 34 16
181 34 8
182 34 1
183 35 40
184 35 16
185 35 16
186 35 1.6
187 35 1.4
188 36 40
189 36 40
190 36 16
191 36 8
192 36 1.6
193 36 1.6
194 36 0.8
195 37 40
196 37 16
197 37 8
198 38 40
199 38 40
200 38 8
201 38 1
202 39 40
203 39 40
204 39 8
205 40 40
206 40 40
207 40 16
208 40 1.6
209 40 1.6
210 40 1.6
211 40 0.2
212 41 40
213 41 16
214 41 8
215 41 1.6
216 41 1.6
217 41 1.6
218 41 0.2
219 42 40
220 42 40
221 42 16
222 42 8
223 43 40
224 43 40
225 43 16
226 43 1.6
227 43 1.6
228 43 0.8
229 44 40
230 44 40
231 44 8
232 44 1.6
233 44 1.6
234 44 1.6
235 44 0.2
236 45 40
237 45 16
238 45 16
239 45 1.6
240 45 1.4
241 46 40
242 46 40
243 46 16
244 46 8
245 46 1.6
246 46 1.6
247 46 1.6
248 46 1.6
249 46 0.6
250 47 40
251 47 40
252 47 16
253 47 8
254 47 1.6
255 47 1.6
256 47 0.8
257 48 40
258 48 40
259 48 1.6
260 48 1.6
261 48 1.6
262 48 0.2
263 49 40
264 49 40
265 49 1.6
266 49 1.4
267 50 40
268 50 40
269 50 16
270 50 8
271 50 1.6
272 50 1.6
273 50 1.6
274 50 1.2
275 51 40
276 51 40
277 51 16
278 51 8
279 51 1.6
280 51 1.6
281 51 1.6
282 51 1.6
283 51 0.6
284 52 40
285 52 16
286 52 16
287 52 1.6
288 52 1.6
289 52 1.6
290 52 0.2
291 53 40
292 53 40
293 53 8
294 53 1.6
295 53 1.4
296 54 40
297 54 40
298 54 16
299 54 1.6
300 54 1.6
301 54 1.6
302 54 1.2
303 55 40
304 55 40
305 55 16
306 55 8
307 55 1.6
308 55 1.4
309 56 40
310 56 16
311 56 8
312 56 1.6
313 56 1.6
314 56 1.6
315 56 1.6
316 56 0.6
317 57 40
318 57 40
319 57 16
320 57 1.6
321 57 1.4
322 58 40
323 58 40
324 58 8
325 58 1.6
326 58 1.4
327 59 40
328 59 40
329 59 8
330 59 1.6
331 59 1.6
332 59 1.6
333 59 1.2
334 60 40
335 60 16
336 60 8
337 60 1
338 61 40
339 61 40
340 61 16
341 61 8
342 61 1.6
343 61 0.4
344 62 40
345 62 16
346 62 16
347 62 1.6
348 62 1.6
349 62 1.6
350 62 1.6
351 62 0.6
352 63 40
353 63 16
354 63 16
355 64 40
356 64 16
357 64 1.6
358 64 1.6
359 64 1.6
360 64 0.2
361 65 40
362 65 40
363 65 16
364 65 8
365 65 1.6
366 65 1.6
367 65 1.6
368 65 1.6
369 65 0.6
370 66 40
371 66 16
372 66 8
373 66 1.6
374 66 1.4
375 67 40
376 67 8
377 67 1.6
378 67 0.4
379 68 40
380 68 16
381 68 1.6
382 68 0.4
383 69 40
384 69 40
385 69 16
386 69 8
387 69 1.6
388 69 1.6
389 69 1.6
390 69 1.6
391 69 0.6
392 70 40
393 70 16
394 71 40
395 71 16
396 71 16
397 71 1.6
398 71 1.6
399 71 1.6
400 71 0.2
401 72 40
402 72 8
403 72 1.6
404 72 1.6
405 72 1.6
406 72 1.6
407 72 0.6
408 73 40
409 73 40
410 73 16
411 73 8
412 73 1
413 74 40
414 74 8
415 75 40
416 75 40
417 75 16
418 75 1.6
419 75 1.4
420 76 40
421 76 8
422 76 1.6
423 76 1.6
424 76 1.6
425 76 1.2
426 77 40
427 77 40
428 77 8
429 77 1.6
430 77 1.4
431 78 40
432 78 8
433 78 1.6
434 78 1.6
435 78 1.6
436 78 1.6
437 78 0.6
438 79 40
439 79 40
440 79 16
441 79 8
442 79 1.6
443 79 1.6
444 79 1.6
445 79 1.6
446 79 0.6
447 80 40
448 80 8
449 80 1.6
450 80 1.6
451 80 1.6
452 80 0.2
453 81 40
454 81 16
455 81 8
456 81 1.6
457 81 1.6
458 81 1.6
459 81 1.6
460 81 0.6
461 82 40
462 82 16
463 82 1.6
464 82 1.6
465 82 0.8
466 83 40
467 83 40
468 83 16
469 83 8
470 83 1.6
471 83 1.6
472 83 1.6
473 83 0.2
474 84 40
475 84 8
476 84 1.6
477 84 1.6
478 84 0.8
479 85 40
480 85 8
481 85 1.6
482 85 0.4
483 86 40
484 86 16
485 86 1.6
486 86 1.6
487 86 1.6
488 86 1.6
489 86 0.6
490 87 40
491 87 40
492 87 8
493 87 1.6
494 87 1.6
495 87 1.6
496 87 1.2
497 88 40
498 88 8
499 88 1.6
500 88 1.6
501 88 0.8
502 89 40
503 89 16
504 89 16
505 89 1.6
506 89 1.6
507 89 1.6
508 89 0.2
509 90 40
510 90 16
511 90 8
512 91 40
513 91 16
514 91 8
515 91 1.6
516 91 1.6
517 91 1.6
518 91 1.2
519 92 40
520 92 8
521 92 1.6
522 92 1.6
523 92 0.8
524 93 40
525 93 40
526 93 16
527 93 1.6
528 93 0.4
529 94 40
530 94 16
531 94 1.6
532 94 1.6
533 94 1.6
534 94 1.2
535 95 40
536 95 8
537 95 1.6
538 95 1.6
539 95 0.8
540 96 40
541 96 8
542 96 1.6
543 96 1.6
544 96 0.8
545 97 40
546 97 40
547 97 16
548 97 8
549 97 1.6
550 97 1.6
551 97 1.6
552 97 1.2
553 98 40
554 98 16
555 98 1.6
556 98 1.4
557 99 40
558 99 16
559 99 16
560 99 1.6
561 99 1.6
562 99 1.6
563 99 0.2
564 100 40
565 100 8
566 100 1.6
567 100 1.6
568 100 1.6
569 100 0.2
PICKUP_SECTION
NODE_SECTION
35 35

41 49

35 17

55 45

55 20

15 30

25 30

20 50

10 43

55 60

30 60

20 65

50 35

30 25

15 10

30  5

10 20

 5 30

20 40

15 60

45 65

45 20

45 10

55  5

65 35

65 20

45 30

35 40

41 37

64 42

40 60

31 52

35 69

53 52

65 55

63 65

 2 60

20 20

 5  5

60 12

40 25

42  7

24 12

23  3

11 14

 6 38

 2 48

 8 56

13 52
 
6 68

47 47

49 58

27 43

37 31

57 29

63 23

53 12

32 12

36 26

21 24

17 34

12 24

24 58

27 69

15 77

62 77

49 73

67  5

56 39

37 47

37 56

57 68

47 16

44 17

46 13

49 11

49 42

53 43

61 52

57 48

56 37

55 54

15 47

14 37

11 31

16 22

 4 18

28 18

26 52

26 35

31 67

15 19

22 22

18 24

26 27

25 24

22 27

25 21

19 21

20 26

18 18
DISTANCE_SECTION
DEPOT_SECTION
0
EOF